
(set-option :pp.decimal true)
(set-option :pp.decimal_precision 7)
(declare-const conc1 Real)
(declare-const conc2 Real)
(declare-const conc3 Real)
(declare-const conc4 Real)
(declare-const conc5 Real)
(declare-const conc6 Real)
(declare-const conc7 Real)
(declare-const conc8 Real)
(declare-const conc9 Real)
(declare-const conc10 Real)
(declare-const conc11 Real)
(declare-const flow1 Real)
(declare-const flow2 Real)
(declare-const flow3 Real)
(declare-const flow4 Real)
(declare-const flow5 Real)
(declare-const flow6 Real)
(declare-const flow7 Real)
(declare-const flow8 Real)
(declare-const flow9 Real)
(assert (>= conc1 0))
(assert (>= conc2 0))
(assert (>= conc3 0))
(assert (>= conc4 0))
(assert (>= conc5 0))
(assert (>= conc6 0))
(assert (>= conc7 0))
(assert (>= conc8 0))
(assert (>= conc9 0))
(assert (>= conc10 0))
(assert (>= conc11 0))
(assert (= flow1 (+ (* 1.0000000000 conc2 conc1) (* -1. 0.6144677997 conc3))))
(assert (= flow2 (+ (* 0.7628181577 conc2 conc2) (* -1. 1.0000000000 conc4))))
(assert (= flow3 (+ (* 0.6868639588 conc1 conc1) (* -1. 1.0000000000 conc5))))
(assert (= flow4 (+ (* 1.0000000000 conc2 conc4) (* -1. 0.7318791747 conc6))))
(assert (= flow5 (+ (* 1.0000000000 conc1 conc5) (* -1. 0.4206522405 conc7))))
(assert (= flow6 (+ (* 1.0000000000 conc2 conc5) (* -1. 0.7402815819 conc8))))
(assert (= flow7 (+ (* 1.0000000000 conc5 conc4) (* -1. 0.5507617593 conc9))))
(assert (= flow8 (+ (* 0.7477322817 conc2 conc6) (* -1. 1.0000000000 conc10))))
(assert (= flow9 (+ (* 1.0000000000 conc1 conc7) (* -1. 0.9933158755 conc11))))
(assert (= (+ (* -1 flow1) (* -2 flow3) (* -1 flow5) (* -1 flow9) 1.0000000000 (* -1. 0.5000000000 conc1)) 0))
(assert (= (+ (* -1 flow1) (* -2 flow2) (* -1 flow4) (* -1 flow6) (* -1 flow8) 1.0000000000 (* -1. 0.5000000000 conc2)) 0))
(assert (= (+ (* 1 flow1) 0.0000000000 (* -1. 0.5000000000 conc3)) 0))
(assert (= (+ (* 1 flow2) (* -1 flow4) (* -1 flow7) 0.0000000000 (* -1. 0.5000000000 conc4)) 0))
(assert (= (+ (* 1 flow3) (* -1 flow5) (* -1 flow6) (* -1 flow7) 0.0000000000 (* -1. 0.5000000000 conc5)) 0))
(assert (= (+ (* 1 flow4) (* -1 flow8) 0.0000000000 (* -1. 0.5000000000 conc6)) 0))
(assert (= (+ (* 1 flow5) (* -1 flow9) 0.0000000000 (* -1. 0.5000000000 conc7)) 0))
(assert (= (+ (* 1 flow6) 0.0000000000 (* -1. 0.5000000000 conc8)) 0))
(assert (= (+ (* 1 flow7) 0.0000000000 (* -1. 0.5000000000 conc9)) 0))
(assert (= (+ (* 1 flow8) 0.0000000000 (* -1. 0.5000000000 conc10)) 0))
(assert (= (+ (* 1 flow9) 0.0000000000 (* -1. 0.5000000000 conc11)) 0))
(check-sat)
(get-model)
